0 0 0 0
0 1 0 0
0 2 0 0
0 3 2 0
0 4 1 5
0 5 0 3
0 6 0 5
0 7 0 5
0 8 1 9
0 9 1 9
0 10 0 3
0 11 1 3
0 12 1 15
0 13 0 9
0 14 0 9
0 15 0 14
0 16 1 9
0 17 2 21
0 18 0 15
0 19 2 14
0 20 0 21
0 21 1 9
0 22 0 26
0 23 0 16
0 24 1 20
0 25 0 27
0 26 0 21
0 27 0 27
0 28 0 28
0 29 0 28
0 30 0 30
0 31 0 33
